NAME : random_3
COMMENT : 30 random nodes
TYPE : TSP
DIMENSION : 30
EDGE_WEIGHT_TYPE : EUC_2D
NODE_COORD_SECTION
1 200 401
2 362 906
3 776 848
4 869 747
5 350 226
6 201 153
7 147 39
8 830 550
9 320 958
10 561 380
11 491 375
12 161 694
13 495 675
14 584 247
15 751 258
16 626 710
17 733 793
18 462 256
19 848 860
20 892 881
21 609 516
22 314 307
23 319 701
24 750 975
25 815 65
26 975 161
27 717 307
28 133 68
29 625 303
30 415 665
EOF